n_agents = 9;

% transfered from the photo1.dzn instance from the MZN benchmark
friends = [
{1,3},         % 01
{5,9},       % 02
{1,3,4},   % 03
{5, 6},     % 04
1..3,       % 05
{4,6,7},     % 06
{1,2,3},       % 07
{6,2,9},     % 08
{1,4}];     % 09

enemies = [
{5,7},         % 01
{1,8},       % 02
{4,3,2},   % 03
{4, 7},     % 04
4..5,       % 05
{2,3,4},     % 06
{9,3,8},       % 07
{7,1,3},     % 08
{2,5}];     % 09